NAME : xqf131
COMMENT : Bonn VLSI data set with 131 points
COMMENT : Uni Bonn, Research Institute for Discrete Math
COMMENT : Contributed by Andre Rohe
TYPE : TSP
DIMENSION : 131
EDGE_WEIGHT_TYPE : EUC_2D
NODE_COORD_SECTION
1 0 13
2 2 0
3 5 13
4 5 19
5 18 11
6 18 13
7 18 15
EOF
